nbProcess=3;
nbJobs =3;
nbMchs =5;
Process1=[3,3,3];
pidle=[1,2,3,1,2];
EnergyS=[10,30,60,10,30];
TB=[10,15,20,10,15];
x=
[
[
[1,0,0,],
[1,0,0,],
[1,0,0,],
],
[
[1,1,0,],
[0,1,0,],
[1,0,0,],
],
[
[0,0,0,],
[1,1,1,],
[0,1,0,],
],
[
[0,1,1,],
[0,0,0,],
[0,1,1,],
],
[
[0,0,1,],
[0,0,1,],
[0,0,1,],
],
];
ptime =
[
[
[117,0,0],
[214,0,0],
[87,0,0]
],
[
[125,130,0],
[0,66,0],
[62,0,0]
],
[
[0,0,0],
[150,55,65],
[0,80,0]
],
[
[0,140,150],
[0,0,0],
[0,70,190]
],
[
[0,0,160],
[0,0,78],
[0,0,100]
]
];
power1=
[
[
[3.1,0,0,],
[4.9,0,0,],
[3.9,0,0,],
],
[
[3.3,4.6,0,],
[0,3.3,0,],
[3.5,0,0,],
],
[
[0,0,0,],
[3.5,4.8,3.3,],
[0,4.1,0,],
],
[
[0,3.9,3.2,],
[0,0,0,],
[0,4.7,3.2,],
],
[
[0,0,4.6,],
[0,0,3.4,],
[0,0,3.3,],
],
];